; ./seahorn/./sv_comp_flat_small/array-examples/standard_strcpy_original_true-unreach-call.c.flat_000.smt2
(set-logic HORN)

(declare-fun |main_1| ( Int Int Int Int Int Int Int ) Bool)

(assert
  (forall ( (A Int) (B Int) (C Int) (D Int) (E Int) (F Int) (v_6 Int) ) 
    (=>
      (and
        (and true (= 0 v_6))
      )
      (main_1 v_6 A B C D E F)
    )
  )
)
(assert
  (forall ( (A Int) (B Int) (C Int) (D Int) (E Int) (F Int) (G Int) (H Int) (I Int) (J Int) (K Bool) (L Int) (M Int) (N Bool) (O Bool) (P Int) (Q Int) (v_17 Int) (v_18 Int) ) 
    (=>
      (and
        (main_1 v_17 E F G H I J)
        (and (= 0 v_17)
     (= A L)
     (or (= D Q) (not K) (not O))
     (or (= C P) (not K) (not O))
     (or (= Q 0) (not K) (not O))
     (or (= P I) (not K) (not O))
     (or (not N) (and K O))
     (= N true)
     (= B M)
     (= 1 v_18))
      )
      (main_1 v_18 L F G M I D)
    )
  )
)
(assert
  (forall ( (A Int) (B Int) (C Bool) (D Int) (E Int) (F Int) (G Int) (H Int) (I Int) (J Int) (K Int) (L Bool) (M Int) (N Int) (O Int) (P Int) (Q Bool) (R Bool) (v_18 Int) (v_19 Int) ) 
    (=>
      (and
        (main_1 v_18 F G H I J K)
        (and (= 1 v_18)
     (= A (+ I (* 4 K)))
     (= B (+ F (* 4 O)))
     (= O (+ 1 K))
     (or (= E N) (not L) (not R))
     (or (= D M) (not L) (not R))
     (or (= N O) (not L) (not R))
     (or (= M P) (not L) (not R))
     (or (not C) (not L) (not R))
     (or (not Q) (and L R))
     (= Q true)
     (= C (= P 0))
     (= 1 v_19))
      )
      (main_1 v_19 F G H I J E)
    )
  )
)
(assert
  (forall ( (A Int) (B Int) (C Int) (D Int) (E Bool) (F Int) (G Int) (H Int) (I Int) (J Int) (K Int) (L Bool) (M Int) (N Int) (O Bool) (P Bool) (Q Bool) (R Bool) (S Int) (T Int) (v_20 Int) (v_21 Int) ) 
    (=>
      (and
        (main_1 v_20 F G H I J K)
        (and (= 1 v_20)
     (= C (+ I (* 4 K)))
     (= M (+ 1 K))
     (= D (+ F (* 4 M)))
     (or E (not L) (not P))
     (or (not R) (not O) (= B T))
     (or (not R) (not O) (= A S))
     (or (not R) (not O) (= T 0))
     (or (not R) (not O) (= S J))
     (or (not O) (and L P))
     (or (not Q) (and R O))
     (= Q true)
     (= E (= N 0))
     (= 2 v_21))
      )
      (main_1 v_21 F A B I J K)
    )
  )
)
(assert
  (forall ( (A Int) (B Bool) (C Int) (D Int) (E Bool) (F Bool) (G Int) (H Int) (I Int) (J Int) (K Int) (L Int) (M Int) (N Int) (O Bool) (P Int) (Q Int) (R Int) (S Bool) (T Bool) (U Int) (V Bool) (W Bool) (v_23 Int) (v_24 Int) ) 
    (=>
      (and
        (main_1 v_23 I J K L M N)
        (let ((a!1 (or (not S) (= A (+ I (* 4 R))))))
  (and (= 2 v_23)
       (not (= E F))
       (= B (= J 0))
       (= C (+ L (* 4 K)))
       (= R (+ 1 K))
       (or (not W) (not S) (= Q R))
       (or (not W) (not S) (= P U))
       (or (not W) (not S) (= H Q))
       (or (not W) (not S) (= G P))
       (or (not T) (not O) (not F))
       a!1
       (or (not S) (and T O))
       (or (not V) (and W S))
       (not B)
       (= V true)
       (= E (= D J))
       (= 2 v_24)))
      )
      (main_1 v_24 I G H L M N)
    )
  )
)
(assert
  (forall ( (A Bool) (B Int) (C Int) (D Bool) (E Bool) (F Int) (G Int) (H Int) (I Int) (J Int) (K Int) (L Bool) (M Int) (N Bool) (O Bool) (v_15 Int) (v_16 Int) ) 
    (=>
      (and
        (main_1 v_15 F G H I J K)
        (and (= 2 v_15)
     (not (= D E))
     (= A (= G 0))
     (= B (+ I (* 4 H)))
     (= M (+ 1 H))
     (or E (not L) (not O))
     (or (not N) (and L O))
     (not A)
     (= N true)
     (= D (= C G))
     (= 3 v_16))
      )
      (main_1 v_16 F G H I J K)
    )
  )
)
(assert
  (forall ( (A Int) (B Int) (C Int) (D Int) (E Int) (F Int) (v_6 Int) ) 
    (=>
      (and
        (main_1 v_6 A B C D E F)
        (= 3 v_6)
      )
      false
    )
  )
)

(check-sat)
(exit)
